Route #1: 26 46 20 31 42 7 4
Route #2: 14 17 34 3 37 36
Route #3: 33 2 51 15 11
Route #4: 32 38 16 40 53 5 10 12
Route #5: 47 39 49 9 35 43
Route #6: 6 45 1 29
Route #7: 25 41 8 21
Route #8: 23 52 24 44 50 48 18
Route #9: 30 22 19 27 13 54 28
Cost 1074
Time 0.080607
